words_hard_train/5283.qaiger
aag 23 9 0 1 14
2
4
8
10
20
24
32
34
44
46
6 3 5
12 8 10
14 2 4
16 13 15
18 9 11
22 19 20
26 22 24
28 16 27
30 7 29
36 33 35
38 30 37
40 32 34
42 39 41
46 42 44
i0 1 x1[5]
i1 2 y2[2]
i2 1 x1[4]
i3 2 y2[1]
i4 2 y2[0]
i5 1 x1[3]
i6 1 x1[6]
i7 2 y2[3]
i8 2 y2[4]
o0 bv[0]
c
simplified
  >=
    or
      invert
        1 x1
      reverse
        1
    << 3
      2 y2
