words_hard_train/5283.qaiger.qdimacs
p cnf 23 43
a 16 1 4 12 0
e 2 3 5 6 7 8 9 10 11 13 14 15 17 18 19 20 21 22 23 0
1 2 3 0
-1 -3 0
-2 -3 0
-4 -5 6 0
4 -6 0
5 -6 0
-1 -2 7 0
1 -7 0
2 -7 0
6 7 8 0
-6 -8 0
-7 -8 0
4 5 9 0
-4 -9 0
-5 -9 0
9 -10 11 0
-9 -11 0
10 -11 0
-11 -12 13 0
11 -13 0
12 -13 0
-8 13 14 0
8 -14 0
-13 -14 0
3 14 15 0
-3 -15 0
-14 -15 0
16 17 18 0
-16 -18 0
-17 -18 0
-15 18 19 0
15 -19 0
-18 -19 0
-16 -17 20 0
16 -20 0
17 -20 0
19 20 21 0
-19 -21 0
-20 -21 0
-21 -22 23 0
21 -23 0
22 -23 0
23 0
